p cnf 68 180
1 -45 -41 0
-1 45 -41 0
1 45 -42 0
-1 -45 -42 0
21 -45 -43 0
-21 45 -43 0
21 45 -44 0
-21 -45 -44 0
2 -41 0
2 -42 0
41 -41 0
42 -42 0
22 -43 0
22 -44 0
43 -43 0
44 -44 0
3 -46 -41 0
-3 46 -41 0
3 46 -42 0
-3 -46 -42 0
23 -46 -43 0
-23 46 -43 0
23 46 -44 0
-23 -46 -44 0
4 -47 -41 0
-4 47 -41 0
4 47 -42 0
-4 -47 -42 0
24 -47 -43 0
-24 47 -43 0
24 47 -44 0
-24 -47 -44 0
5 -48 -41 0
-5 48 -41 0
5 48 -42 0
-5 -48 -42 0
25 -48 -43 0
-25 48 -43 0
25 48 -44 0
-25 -48 -44 0
6 -41 0
6 -42 0
41 -41 0
42 -42 0
26 -43 0
26 -44 0
43 -43 0
44 -44 0
7 -41 0
7 -42 0
41 -41 0
42 -42 0
27 -43 0
27 -44 0
43 -43 0
44 -44 0
8 -49 -41 0
-8 49 -41 0
8 49 -42 0
-8 -49 -42 0
28 -49 -43 0
-28 49 -43 0
28 49 -44 0
-28 -49 -44 0
9 -41 0
9 -42 0
41 -41 0
42 -42 0
29 -43 0
29 -44 0
43 -43 0
44 -44 0
-10 -41 0
-10 -42 0
41 -41 0
42 -42 0
-30 -43 0
-30 -44 0
43 -43 0
44 -44 0
-11 -41 0
-11 -42 0
41 -41 0
42 -42 0
-31 -43 0
-31 -44 0
43 -43 0
44 -44 0
12 -41 0
12 -42 0
41 -41 0
42 -42 0
32 -43 0
32 -44 0
43 -43 0
44 -44 0
13 -41 0
13 -42 0
41 -41 0
42 -42 0
33 -43 0
33 -44 0
43 -43 0
44 -44 0
-14 -41 0
-14 -42 0
41 -41 0
42 -42 0
-34 -43 0
-34 -44 0
43 -43 0
44 -44 0
-15 -41 0
-15 -42 0
41 -41 0
42 -42 0
-35 -43 0
-35 -44 0
43 -43 0
44 -44 0
16 -41 0
16 -42 0
41 -41 0
42 -42 0
36 -43 0
36 -44 0
43 -43 0
44 -44 0
17 -41 0
17 -42 0
41 -41 0
42 -42 0
37 -43 0
37 -44 0
43 -43 0
44 -44 0
18 -41 0
18 -42 0
41 -41 0
42 -42 0
38 -43 0
38 -44 0
43 -43 0
44 -44 0
19 -41 0
19 -42 0
41 -41 0
42 -42 0
39 -43 0
39 -44 0
43 -43 0
44 -44 0
20 -41 0
20 -42 0
41 -41 0
42 -42 0
40 -43 0
40 -44 0
43 -43 0
44 -44 0
-65 41 0
65 -41 0
-66 42 0
65 -42 0
-65 -41 0
-66 -42 0
-67 41 65 0
67 -41 0
67 -65 0
-68 42 66 0
68 -42 0
68 -66 0
-67 -43 0
-68 -44 0
67 0
68 0
-41 44 0
-42 0
-43 0
-44 41 0
